\ Generated by MPModelProtoExporter
\   Name             : 
\   Format           : Free
\   Constraints      : 148
\   Variables        : 20
\     Binary         : 0
\     Integer        : 0
\     Continuous     : 20
Maximize
 Obj: -2 _1 -3 _2 -1 _3 -1 _4 +1 _0AN_1 +1 _0CI_1_2 +1 _0CN_3 +1 _0K_4 +1 _0MC_2_3 +1 _0MK_2_4 +1 _0N_1 +1 _0T_2 
Subject to
 Mono_Ineq.__H(0AN_1)____H(0AN): -1 _0AN +1 _0AN_1  >= 0
 Mono_Ineq.__H(0AN_1)____H(1): -1 _1 +1 _0AN_1  >= 0
 Additivity_Ineq.__H(0AN_1)____H(0AN)___H(1): -1 _1 -1 _0AN +1 _0AN_1  <= 0
 Mono_Ineq.__H(0CI_1_2)____H(0CI): -1 _0CI +1 _0CI_1_2  >= 0
 Mono_Ineq.__H(0CI_1_2)____H(2): -1 _2 +1 _0CI_1_2  >= 0
 Mono_Ineq.__H(0CI_1_2)____H(1): -1 _1 +1 _0CI_1_2  >= 0
 Additivity_Ineq.__H(0CI_1_2)____H(0CI)___H(2)___H(1): -1 _1 -1 _2 -1 _0CI +1 _0CI_1_2  <= 0
 Mono_Ineq.__H(0CN_3)____H(0CN): -1 _0CN +1 _0CN_3  >= 0
 Mono_Ineq.__H(0CN_3)____H(3): -1 _3 +1 _0CN_3  >= 0
 Additivity_Ineq.__H(0CN_3)____H(0CN)___H(3): -1 _3 -1 _0CN +1 _0CN_3  <= 0
 Mono_Ineq.__H(0K_4)____H(0K): -1 _0K +1 _0K_4  >= 0
 Mono_Ineq.__H(0K_4)____H(4): -1 _4 +1 _0K_4  >= 0
 Additivity_Ineq.__H(0K_4)____H(0K)___H(4): -1 _4 -1 _0K +1 _0K_4  <= 0
 Mono_Ineq.__H(0MC_2_3)____H(0MC): -1 _0MC +1 _0MC_2_3  >= 0
 Mono_Ineq.__H(0MC_2_3)____H(2): -1 _2 +1 _0MC_2_3  >= 0
 Mono_Ineq.__H(0MC_2_3)____H(3): -1 _3 +1 _0MC_2_3  >= 0
 Additivity_Ineq.__H(0MC_2_3)____H(0MC)___H(2)___H(3): -1 _2 -1 _3 -1 _0MC +1 _0MC_2_3  <= 0
 Mono_Ineq.__H(0MK_2_4)____H(0MK): -1 _0MK +1 _0MK_2_4  >= 0
 Mono_Ineq.__H(0MK_2_4)____H(2): -1 _2 +1 _0MK_2_4  >= 0
 Mono_Ineq.__H(0MK_2_4)____H(4): -1 _4 +1 _0MK_2_4  >= 0
 Additivity_Ineq.__H(0MK_2_4)____H(0MK)___H(2)___H(4): -1 _2 -1 _4 -1 _0MK +1 _0MK_2_4  <= 0
 Mono_Ineq.__H(0N_1)____H(0N): -1 _0N +1 _0N_1  >= 0
 Mono_Ineq.__H(0N_1)____H(1): -1 _1 +1 _0N_1  >= 0
 Additivity_Ineq.__H(0N_1)____H(0N)___H(1): -1 _1 -1 _0N +1 _0N_1  <= 0
 Mono_Ineq.__H(0T_2)____H(0T): -1 _0T +1 _0T_2  >= 0
 Mono_Ineq.__H(0T_2)____H(2): -1 _2 +1 _0T_2  >= 0
 Additivity_Ineq.__H(0T_2)____H(0T)___H(2): -1 _2 -1 _0T +1 _0T_2  <= 0
 Statistics_Ineq._1__1___h(0AN_1)___0___h(1)____1___log2(901343.0)_|_1_|_AN.PERSON_ID: +1 _0AN_1  <= 19.7817
 Statistics_Ineq._2__2___h(0AN_1)___1___h(1)____2___log2(1492.0499321403422)_|_2_|_AN.PERSON_ID: -1 _1 +2 _0AN_1  <= 21.0862
 Statistics_Ineq._3__3___h(0AN_1)___2___h(1)____3___log2(231.94083533918547)_|_3_|_AN.PERSON_ID: -2 _1 +3 _0AN_1  <= 23.5728
 Statistics_Ineq._4__4___h(0AN_1)___3___h(1)____4___log2(120.5727659495675)_|_4_|_AN.PERSON_ID: -3 _1 +4 _0AN_1  <= 27.655
 Statistics_Ineq._5__5___h(0AN_1)___4___h(1)____5___log2(96.67418823191883)_|_5_|_AN.PERSON_ID: -4 _1 +5 _0AN_1  <= 32.9753
 Statistics_Ineq._6__6___h(0AN_1)___5___h(1)____6___log2(88.71276440457329)_|_6_|_AN.PERSON_ID: -5 _1 +6 _0AN_1  <= 38.8264
 Statistics_Ineq._7__7___h(0AN_1)___6___h(1)____7___log2(85.01564334837424)_|_7_|_AN.PERSON_ID: -6 _1 +7 _0AN_1  <= 44.8676
 Statistics_Ineq._8__8___h(0AN_1)___7___h(1)____8___log2(82.89092942293715)_|_8_|_AN.PERSON_ID: -7 _1 +8 _0AN_1  <= 50.9851
 Statistics_Ineq._9__9___h(0AN_1)___8___h(1)____9___log2(81.5030202322851)_|_9_|_AN.PERSON_ID: -8 _1 +9 _0AN_1  <= 57.139
 Statistics_Ineq._10__10___h(0AN_1)___9___h(1)____10___log2(80.521603766241)_|_10_|_AN.PERSON_ID: -9 _1 +10 _0AN_1  <= 63.313
 Statistics_Ineq._11__h(0AN_1)___h(1)____log2(76.0)_|_inf_|_AN.PERSON_ID: -1 _1 +1 _0AN_1  <= 6.24793
 Statistics_Ineq._12__1___h(0CI_1_2)___0___h(2)____1___log2(21526751.0)_|_1_|_CI.MOVIE_ID: +1 _0CI_1_2  <= 24.3596
 Statistics_Ineq._13__2___h(0CI_1_2)___1___h(2)____2___log2(34234.91053004228)_|_2_|_CI.MOVIE_ID: -1 _2 +2 _0CI_1_2  <= 30.1264
 Statistics_Ineq._14__3___h(0CI_1_2)___2___h(2)____3___log2(4886.5299292489035)_|_3_|_CI.MOVIE_ID: -2 _2 +3 _0CI_1_2  <= 36.7638
 Statistics_Ineq._15__4___h(0CI_1_2)___3___h(2)____4___log2(2538.022075081795)_|_4_|_CI.MOVIE_ID: -3 _2 +4 _0CI_1_2  <= 45.238
 Statistics_Ineq._16__5___h(0CI_1_2)___4___h(2)____5___log2(2121.089627384633)_|_5_|_CI.MOVIE_ID: -4 _2 +5 _0CI_1_2  <= 55.2529
 Statistics_Ineq._17__6___h(0CI_1_2)___5___h(2)____6___log2(1987.769987069849)_|_6_|_CI.MOVIE_ID: -5 _2 +6 _0CI_1_2  <= 65.7416
 Statistics_Ineq._18__7___h(0CI_1_2)___6___h(2)____7___log2(1921.0740334447532)_|_7_|_CI.MOVIE_ID: -6 _2 +7 _0CI_1_2  <= 76.3539
 Statistics_Ineq._19__8___h(0CI_1_2)___7___h(2)____8___log2(1879.7453515128)_|_8_|_CI.MOVIE_ID: -7 _2 +8 _0CI_1_2  <= 87.0106
 Statistics_Ineq._20__9___h(0CI_1_2)___8___h(2)____9___log2(1851.259364856661)_|_9_|_CI.MOVIE_ID: -8 _2 +9 _0CI_1_2  <= 97.6886
 Statistics_Ineq._21__10___h(0CI_1_2)___9___h(2)____10___log2(1830.377763405358)_|_10_|_CI.MOVIE_ID: -9 _2 +10 _0CI_1_2  <= 108.379
 Statistics_Ineq._22__h(0CI_1_2)___h(2)____log2(1741.0)_|_inf_|_CI.MOVIE_ID: -1 _2 +1 _0CI_1_2  <= 10.7657
 Statistics_Ineq._23__1___h(0CI_1_2)___0___h(1)____1___log2(32268317.0)_|_1_|_CI.PERSON_ID: +1 _0CI_1_2  <= 24.9436
 Statistics_Ineq._24__2___h(0CI_1_2)___1___h(1)____2___log2(98093.71828511752)_|_2_|_CI.PERSON_ID: -1 _1 +2 _0CI_1_2  <= 33.1637
 Statistics_Ineq._25__3___h(0CI_1_2)___2___h(1)____3___log2(25134.928965133528)_|_3_|_CI.PERSON_ID: -2 _1 +3 _0CI_1_2  <= 43.8522
 Statistics_Ineq._26__4___h(0CI_1_2)___3___h(1)____4___log2(15791.902421458257)_|_4_|_CI.PERSON_ID: -3 _1 +4 _0CI_1_2  <= 55.7876
 Statistics_Ineq._27__5___h(0CI_1_2)___4___h(1)____5___log2(12971.732840001827)_|_5_|_CI.PERSON_ID: -4 _1 +5 _0CI_1_2  <= 68.3154
 Statistics_Ineq._28__6___h(0CI_1_2)___5___h(1)____6___log2(11781.748943575585)_|_6_|_CI.PERSON_ID: -5 _1 +6 _0CI_1_2  <= 81.1456
 Statistics_Ineq._29__7___h(0CI_1_2)___6___h(1)____7___log2(11182.212762251316)_|_7_|_CI.PERSON_ID: -6 _1 +7 _0CI_1_2  <= 94.1424
 Statistics_Ineq._30__8___h(0CI_1_2)___7___h(1)____8___log2(10845.907300663903)_|_8_|_CI.PERSON_ID: -7 _1 +8 _0CI_1_2  <= 107.239
 Statistics_Ineq._31__9___h(0CI_1_2)___8___h(1)____9___log2(10643.766168601067)_|_9_|_CI.PERSON_ID: -8 _1 +9 _0CI_1_2  <= 120.399
 Statistics_Ineq._32__10___h(0CI_1_2)___9___h(1)____10___log2(10516.456582958986)_|_10_|_CI.PERSON_ID: -9 _1 +10 _0CI_1_2  <= 133.604
 Statistics_Ineq._33__h(0CI_1_2)___h(1)____log2(10249.0)_|_inf_|_CI.PERSON_ID: -1 _1 +1 _0CI_1_2  <= 13.3232
 Statistics_Ineq._34__1___h(0CN_3)___0___h(3)____1___log2(234997.0)_|_1_|_CN.ID: +1 _0CN_3  <= 17.8423
 Statistics_Ineq._35__2___h(0CN_3)___1___h(3)____2___log2(484.76489146801873)_|_2_|_CN.ID: -1 _3 +2 _0CN_3  <= 17.8423
 Statistics_Ineq._36__3___h(0CN_3)___2___h(3)____3___log2(61.709795330658544)_|_3_|_CN.ID: -2 _3 +3 _0CN_3  <= 17.8423
 Statistics_Ineq._37__4___h(0CN_3)___3___h(3)____4___log2(22.017377034243175)_|_4_|_CN.ID: -3 _3 +4 _0CN_3  <= 17.8423
 Statistics_Ineq._38__5___h(0CN_3)___4___h(3)____5___log2(11.863489865870786)_|_5_|_CN.ID: -4 _3 +5 _0CN_3  <= 17.8423
 Statistics_Ineq._39__6___h(0CN_3)___5___h(3)____6___log2(7.855558244368031)_|_6_|_CN.ID: -5 _3 +6 _0CN_3  <= 17.8423
 Statistics_Ineq._40__7___h(0CN_3)___6___h(3)____7___log2(5.851869288664952)_|_7_|_CN.ID: -6 _3 +7 _0CN_3  <= 17.8423
 Statistics_Ineq._41__8___h(0CN_3)___7___h(3)____8___log2(4.692267792256019)_|_8_|_CN.ID: -7 _3 +8 _0CN_3  <= 17.8423
 Statistics_Ineq._42__9___h(0CN_3)___8___h(3)____9___log2(3.95170668822707)_|_9_|_CN.ID: -8 _3 +9 _0CN_3  <= 17.8423
 Statistics_Ineq._43__10___h(0CN_3)___9___h(3)____10___log2(3.4443417173490185)_|_10_|_CN.ID: -9 _3 +10 _0CN_3  <= 17.8423
 Statistics_Ineq._44__h(0CN_3)___h(3)____log2(1.0)_|_inf_|_CN.ID: -1 _3 +1 _0CN_3  <= 0
 Statistics_Ineq._45__1___h(0K_4)___0___h(4)____1___log2(134170.0)_|_1_|_K.ID: +1 _0K_4  <= 17.0337
 Statistics_Ineq._46__2___h(0K_4)___1___h(4)____2___log2(366.29223305988893)_|_2_|_K.ID: -1 _4 +2 _0K_4  <= 17.0337
 Statistics_Ineq._47__3___h(0K_4)___2___h(4)____3___log2(51.19393035144834)_|_3_|_K.ID: -2 _4 +3 _0K_4  <= 17.0337
 Statistics_Ineq._48__4___h(0K_4)___3___h(4)____4___log2(19.138762579119085)_|_4_|_K.ID: -3 _4 +4 _0K_4  <= 17.0337
 Statistics_Ineq._49__5___h(0K_4)___4___h(4)____5___log2(10.605498428686793)_|_5_|_K.ID: -4 _4 +5 _0K_4  <= 17.0337
 Statistics_Ineq._50__6___h(0K_4)___5___h(4)____6___log2(7.154993385842389)_|_6_|_K.ID: -5 _4 +6 _0K_4  <= 17.0337
 Statistics_Ineq._51__7___h(0K_4)___6___h(4)____7___log2(5.401597291274521)_|_7_|_K.ID: -6 _4 +7 _0K_4  <= 17.0337
 Statistics_Ineq._52__8___h(0K_4)___7___h(4)____8___log2(4.374787146721436)_|_8_|_K.ID: -7 _4 +8 _0K_4  <= 17.0337
 Statistics_Ineq._53__9___h(0K_4)___8___h(4)____9___log2(3.713124327690797)_|_9_|_K.ID: -8 _4 +9 _0K_4  <= 17.0337
 Statistics_Ineq._54__10___h(0K_4)___9___h(4)____10___log2(3.2566084242178692)_|_10_|_K.ID: -9 _4 +10 _0K_4  <= 17.0337
 Statistics_Ineq._55__h(0K_4)___h(4)____log2(1.0)_|_inf_|_K.ID: -1 _4 +1 _0K_4  <= 0
 Statistics_Ineq._56__1___h(0MC_2_3)___0___h(2)____1___log2(1901965.0)_|_1_|_MC.MOVIE_ID: +1 _0MC_2_3  <= 20.8591
 Statistics_Ineq._57__2___h(0MC_2_3)___1___h(2)____2___log2(3660.8208095999453)_|_2_|_MC.MOVIE_ID: -1 _2 +2 _0MC_2_3  <= 23.6759
 Statistics_Ineq._58__3___h(0MC_2_3)___2___h(2)____3___log2(607.4345116171978)_|_3_|_MC.MOVIE_ID: -2 _2 +3 _0MC_2_3  <= 27.7398
 Statistics_Ineq._59__4___h(0MC_2_3)___3___h(2)____4___log2(284.00551012405583)_|_4_|_MC.MOVIE_ID: -3 _2 +4 _0MC_2_3  <= 32.5991
 Statistics_Ineq._60__5___h(0MC_2_3)___4___h(2)____5___log2(190.20771612014772)_|_5_|_MC.MOVIE_ID: -4 _2 +5 _0MC_2_3  <= 37.8572
 Statistics_Ineq._61__6___h(0MC_2_3)___5___h(2)____6___log2(149.8971085241588)_|_6_|_MC.MOVIE_ID: -5 _2 +6 _0MC_2_3  <= 43.367
 Statistics_Ineq._62__7___h(0MC_2_3)___6___h(2)____7___log2(128.9499725547047)_|_7_|_MC.MOVIE_ID: -6 _2 +7 _0MC_2_3  <= 49.0747
 Statistics_Ineq._63__8___h(0MC_2_3)___7___h(2)____8___log2(116.88883900170464)_|_8_|_MC.MOVIE_ID: -7 _2 +8 _0MC_2_3  <= 54.9519
 Statistics_Ineq._64__9___h(0MC_2_3)___8___h(2)____9___log2(109.52056838992583)_|_9_|_MC.MOVIE_ID: -8 _2 +9 _0MC_2_3  <= 60.9755
 Statistics_Ineq._65__10___h(0MC_2_3)___9___h(2)____10___log2(104.8481910727191)_|_10_|_MC.MOVIE_ID: -9 _2 +10 _0MC_2_3  <= 67.1216
 Statistics_Ineq._66__h(0MC_2_3)___h(2)____log2(94.0)_|_inf_|_MC.MOVIE_ID: -1 _2 +1 _0MC_2_3  <= 6.55459
 Statistics_Ineq._67__1___h(0MC_2_3)___0___h(3)____1___log2(2609129.0)_|_1_|_MC.COMPANY_ID: +1 _0MC_2_3  <= 21.3151
 Statistics_Ineq._68__2___h(0MC_2_3)___1___h(3)____2___log2(106883.15010795668)_|_2_|_MC.COMPANY_ID: -1 _3 +2 _0MC_2_3  <= 33.4113
 Statistics_Ineq._69__3___h(0MC_2_3)___2___h(3)____3___log2(75788.07259073698)_|_3_|_MC.COMPANY_ID: -2 _3 +3 _0MC_2_3  <= 48.629
 Statistics_Ineq._70__4___h(0MC_2_3)___3___h(3)____4___log2(68743.68174597787)_|_4_|_MC.COMPANY_ID: -3 _3 +4 _0MC_2_3  <= 64.2758
 Statistics_Ineq._71__5___h(0MC_2_3)___4___h(3)____5___log2(65836.53118034896)_|_5_|_MC.COMPANY_ID: -4 _3 +5 _0MC_2_3  <= 80.033
 Statistics_Ineq._72__6___h(0MC_2_3)___5___h(3)____6___log2(64352.605232193164)_|_6_|_MC.COMPANY_ID: -5 _3 +6 _0MC_2_3  <= 95.8423
 Statistics_Ineq._73__7___h(0MC_2_3)___6___h(3)____7___log2(63514.550164509055)_|_7_|_MC.COMPANY_ID: -6 _3 +7 _0MC_2_3  <= 111.684
 Statistics_Ineq._74__8___h(0MC_2_3)___7___h(3)____8___log2(63012.11279193569)_|_8_|_MC.COMPANY_ID: -7 _3 +8 _0MC_2_3  <= 127.547
 Statistics_Ineq._75__9___h(0MC_2_3)___8___h(3)____9___log2(62698.45498555785)_|_9_|_MC.COMPANY_ID: -8 _3 +9 _0MC_2_3  <= 143.425
 Statistics_Ineq._76__10___h(0MC_2_3)___9___h(3)____10___log2(62496.76791365353)_|_10_|_MC.COMPANY_ID: -9 _3 +10 _0MC_2_3  <= 159.315
 Statistics_Ineq._77__h(0MC_2_3)___h(3)____log2(62075.0)_|_inf_|_MC.COMPANY_ID: -1 _3 +1 _0MC_2_3  <= 15.9217
 Statistics_Ineq._78__1___h(0MK_2_4)___0___h(2)____1___log2(4523930.0)_|_1_|_MK.MOVIE_ID: +1 _0MK_2_4  <= 22.1091
 Statistics_Ineq._79__2___h(0MK_2_4)___1___h(2)____2___log2(16185.9873965106)_|_2_|_MK.MOVIE_ID: -1 _2 +2 _0MK_2_4  <= 27.9649
 Statistics_Ineq._80__3___h(0MK_2_4)___2___h(2)____3___log2(3343.8264818119123)_|_3_|_MK.MOVIE_ID: -2 _2 +3 _0MK_2_4  <= 35.1219
 Statistics_Ineq._81__4___h(0MK_2_4)___3___h(2)____4___log2(1671.5408115873324)_|_4_|_MK.MOVIE_ID: -3 _2 +4 _0MK_2_4  <= 42.8279
 Statistics_Ineq._82__5___h(0MK_2_4)___4___h(2)____5___log2(1148.4788492748567)_|_5_|_MK.MOVIE_ID: -4 _2 +5 _0MK_2_4  <= 50.8275
 Statistics_Ineq._83__6___h(0MK_2_4)___5___h(2)____6___log2(914.941738694339)_|_6_|_MK.MOVIE_ID: -5 _2 +6 _0MK_2_4  <= 59.0252
 Statistics_Ineq._84__7___h(0MK_2_4)___6___h(2)____7___log2(789.6812830724535)_|_7_|_MK.MOVIE_ID: -6 _2 +7 _0MK_2_4  <= 67.3759
 Statistics_Ineq._85__8___h(0MK_2_4)___7___h(2)____8___log2(714.8129944782834)_|_8_|_MK.MOVIE_ID: -7 _2 +8 _0MK_2_4  <= 75.8514
 Statistics_Ineq._86__9___h(0MK_2_4)___8___h(2)____9___log2(666.8052492847414)_|_9_|_MK.MOVIE_ID: -8 _2 +9 _0MK_2_4  <= 84.4301
 Statistics_Ineq._87__10___h(0MK_2_4)___9___h(2)____10___log2(634.4708714390166)_|_10_|_MK.MOVIE_ID: -9 _2 +10 _0MK_2_4  <= 93.0941
 Statistics_Ineq._88__h(0MK_2_4)___h(2)____log2(540.0)_|_inf_|_MK.MOVIE_ID: -1 _2 +1 _0MK_2_4  <= 9.07682
 Statistics_Ineq._89__1___h(0MK_2_4)___0___h(4)____1___log2(4523930.0)_|_1_|_MK.KEYWORD_ID: +1 _0MK_2_4  <= 22.1091
 Statistics_Ineq._90__2___h(0MK_2_4)___1___h(4)____2___log2(142540.5972767057)_|_2_|_MK.KEYWORD_ID: -1 _4 +2 _0MK_2_4  <= 34.242
 Statistics_Ineq._91__3___h(0MK_2_4)___2___h(4)____3___log2(91933.95257125433)_|_3_|_MK.KEYWORD_ID: -2 _4 +3 _0MK_2_4  <= 49.4649
 Statistics_Ineq._92__4___h(0MK_2_4)___3___h(4)____4___log2(82003.06320560009)_|_4_|_MK.KEYWORD_ID: -3 _4 +4 _0MK_2_4  <= 65.2936
 Statistics_Ineq._93__5___h(0MK_2_4)___4___h(4)____5___log2(78043.67590316865)_|_5_|_MK.KEYWORD_ID: -4 _4 +5 _0MK_2_4  <= 81.26
 Statistics_Ineq._94__6___h(0MK_2_4)___5___h(4)____6___log2(76018.0546797557)_|_6_|_MK.KEYWORD_ID: -5 _4 +6 _0MK_2_4  <= 97.2843
 Statistics_Ineq._95__7___h(0MK_2_4)___6___h(4)____7___log2(74849.51552507188)_|_7_|_MK.KEYWORD_ID: -6 _4 +7 _0MK_2_4  <= 113.342
 Statistics_Ineq._96__8___h(0MK_2_4)___7___h(4)____8___log2(74123.73792740938)_|_8_|_MK.KEYWORD_ID: -7 _4 +8 _0MK_2_4  <= 129.421
 Statistics_Ineq._97__9___h(0MK_2_4)___8___h(4)____9___log2(73649.49002095767)_|_9_|_MK.KEYWORD_ID: -8 _4 +9 _0MK_2_4  <= 145.515
 Statistics_Ineq._98__10___h(0MK_2_4)___9___h(4)____10___log2(73328.0635960675)_|_10_|_MK.KEYWORD_ID: -9 _4 +10 _0MK_2_4  <= 161.621
 Statistics_Ineq._99__h(0MK_2_4)___h(4)____log2(72496.0)_|_inf_|_MK.KEYWORD_ID: -1 _4 +1 _0MK_2_4  <= 16.1456
 Statistics_Ineq._100__1___h(0N_1)___0___h(1)____1___log2(1048576.0)_|_1_|_N.ID: +1 _0N_1  <= 20
 Statistics_Ineq._101__2___h(0N_1)___1___h(1)____2___log2(1024.0)_|_2_|_N.ID: -1 _1 +2 _0N_1  <= 20
 Statistics_Ineq._102__3___h(0N_1)___2___h(1)____3___log2(101.59366732596474)_|_3_|_N.ID: -2 _1 +3 _0N_1  <= 20
 Statistics_Ineq._103__4___h(0N_1)___3___h(1)____4___log2(32.0)_|_4_|_N.ID: -3 _1 +4 _0N_1  <= 20
 Statistics_Ineq._104__5___h(0N_1)___4___h(1)____5___log2(16.000000000000004)_|_5_|_N.ID: -4 _1 +5 _0N_1  <= 20
 Statistics_Ineq._105__6___h(0N_1)___5___h(1)____6___log2(10.079368399158984)_|_6_|_N.ID: -5 _1 +6 _0N_1  <= 20
 Statistics_Ineq._106__7___h(0N_1)___6___h(1)____7___log2(7.245789314111253)_|_7_|_N.ID: -6 _1 +7 _0N_1  <= 20
 Statistics_Ineq._107__8___h(0N_1)___7___h(1)____8___log2(5.656854249492381)_|_8_|_N.ID: -7 _1 +8 _0N_1  <= 20
 Statistics_Ineq._108__9___h(0N_1)___8___h(1)____9___log2(4.666116158304466)_|_9_|_N.ID: -8 _1 +9 _0N_1  <= 20
 Statistics_Ineq._109__10___h(0N_1)___9___h(1)____10___log2(4.0)_|_10_|_N.ID: -9 _1 +10 _0N_1  <= 20
 Statistics_Ineq._110__h(0N_1)___h(1)____log2(1.0)_|_inf_|_N.ID: -1 _1 +1 _0N_1  <= 0
 Statistics_Ineq._111__1___h(0T_2)___0___h(2)____1___log2(524288.0)_|_1_|_T.ID: +1 _0T_2  <= 19
 Statistics_Ineq._112__2___h(0T_2)___1___h(2)____2___log2(724.0773439350247)_|_2_|_T.ID: -1 _2 +2 _0T_2  <= 19
 Statistics_Ineq._113__3___h(0T_2)___2___h(2)____3___log2(80.63494719327186)_|_3_|_T.ID: -2 _2 +3 _0T_2  <= 19
 Statistics_Ineq._114__4___h(0T_2)___3___h(2)____4___log2(26.908685288118864)_|_4_|_T.ID: -3 _2 +4 _0T_2  <= 19
 Statistics_Ineq._115__5___h(0T_2)___4___h(2)____5___log2(13.928809012737988)_|_5_|_T.ID: -4 _2 +5 _0T_2  <= 19
 Statistics_Ineq._116__6___h(0T_2)___5___h(2)____6___log2(8.979696386474982)_|_6_|_T.ID: -5 _2 +6 _0T_2  <= 19
 Statistics_Ineq._117__7___h(0T_2)___6___h(2)____7___log2(6.562682848061103)_|_7_|_T.ID: -6 _2 +7 _0T_2  <= 19
 Statistics_Ineq._118__8___h(0T_2)___7___h(2)____8___log2(5.187358218604039)_|_8_|_T.ID: -7 _2 +8 _0T_2  <= 19
 Statistics_Ineq._119__9___h(0T_2)___8___h(2)____9___log2(4.320238955569224)_|_9_|_T.ID: -8 _2 +9 _0T_2  <= 19
 Statistics_Ineq._120__10___h(0T_2)___9___h(2)____10___log2(3.73213196614723)_|_10_|_T.ID: -9 _2 +10 _0T_2  <= 19
 Statistics_Ineq._121__h(0T_2)___h(2)____log2(1.0)_|_inf_|_T.ID: -1 _2 +1 _0T_2  <= 0
Bounds
 0 <= _1
 0 <= _2
 0 <= _3
 0 <= _4
 0 <= _0AN
 0 <= _0AN_1
 0 <= _0CI
 0 <= _0CI_1_2
 0 <= _0CN
 0 <= _0CN_3
 0 <= _0K
 0 <= _0K_4
 0 <= _0MC
 0 <= _0MC_2_3
 0 <= _0MK
 0 <= _0MK_2_4
 0 <= _0N
 0 <= _0N_1
 0 <= _0T
 0 <= _0T_2
End
